%nprocshared=8
%mem=8GB
# freq b3lyp/6-31g(2df,p)

energy: -15.614184499692 gnorm: 0.000439253721 xtb: 6.6.1 (8d0f1dd)

0 1
 C                 -0.66068400    0.54551800   -0.29476200
 H                 -1.10980600    1.52094000   -0.04119200
 H                 -0.56988200    0.49171200   -1.39034100
 C                  0.72685200    0.49696600    0.30722000
 H                  0.65631000    0.40105500    1.39776300
 H                  1.27096100    1.41821700    0.06171600
 F                  1.43090200   -0.57968500   -0.18392700
 O                 -1.41095000   -0.53408400    0.22702800
 H                 -2.23510400   -0.59699200   -0.26356600

D 8 1 4 7 S 36 10.000000

