%nprocshared=8
%mem=8GB
# freq b3lyp/6-31g(2df,p)

energy: -15.614184499692 gnorm: 0.000439253721 xtb: 6.6.1 (8d0f1dd)

0 1
 C                 -0.55285900    0.49886300    0.00016200
 H                 -0.46645700    1.14197100    0.88924800
 H                 -0.46606700    1.14252600   -0.88846000
 C                  0.59413400   -0.50011900    0.00049800
 H                  0.54431000   -1.13812300   -0.88964600
 H                  0.54456500   -1.13678300    0.89163500
 F                  1.78820200    0.18839700   -0.00037300
 O                 -1.75060200   -0.25640800   -0.00071700
 H                 -2.49300400    0.35364000    0.00235600

D 8 1 4 7 S 36 10.000000

