%nprocshared=8
%mem=8GB
# freq b3lyp/6-31g(2df,p)

energy: -15.614184499692 gnorm: 0.000439253721 xtb: 6.6.1 (8d0f1dd)

0 1
 C                 -0.70166700    0.62130700    0.18069600
 H                 -0.80135900    0.82570400    1.25934500
 H                 -1.15585500    1.46846100   -0.35835800
 C                  0.77766700    0.56467600   -0.18957900
 H                  1.32700200    1.36090200    0.32849500
 H                  0.90069900    0.70097600   -1.27206600
 F                  1.31114700   -0.65844000    0.13328300
 O                 -1.28735000   -0.62244000   -0.14373400
 H                 -2.22800800   -0.56646000    0.04620600

D 8 1 4 7 S 36 10.000000

