%nprocshared=8
%mem=8GB
# freq b3lyp/6-31g(2df,p)

energy: -15.614184499692 gnorm: 0.000439253721 xtb: 6.6.1 (8d0f1dd)

0 1
 C                 -0.62558600    0.43772100   -0.37893700
 H                 -1.00065400    1.47358000   -0.39101100
 H                 -0.40312100    0.14782100   -1.41582200
 C                  0.67841700    0.38258900    0.40842700
 H                  0.47504000    0.01177300    1.41924900
 H                  1.13087000    1.37937400    0.47525900
 F                  1.59186100   -0.44814100   -0.20854100
 O                 -1.56304700   -0.42709400    0.24155400
 H                 -2.34148800   -0.48438200   -0.32017500

D 8 1 4 7 S 36 10.000000

