%nprocshared=8
%mem=8GB
# freq b3lyp/6-31g(2df,p)

energy: -15.614184499692 gnorm: 0.000439253721 xtb: 6.6.1 (8d0f1dd)

0 1
 C                 -0.61460700    0.44169300    0.35220000
 H                 -0.36747000    0.19009700    1.39361900
 H                 -0.94907100    1.49026200    0.32792800
 C                  0.66334100    0.28047200   -0.47258200
 H                  1.06656500    1.25437600   -0.77332800
 H                  0.43526500   -0.30624400   -1.36921000
 F                  1.64034400   -0.36528700    0.25819700
 O                 -1.60643500   -0.41404500   -0.19296600
 H                 -2.38930600   -0.36153800    0.36323700

D 8 1 4 7 S 36 10.000000

