%nprocshared=8
%mem=8GB
# freq b3lyp/6-31g(2df,p)

energy: -15.614184499692 gnorm: 0.000439253721 xtb: 6.6.1 (8d0f1dd)

0 1
 C                 -0.68787700    0.60096800   -0.22017800
 H                 -1.14888900    1.49814400    0.22549500
 H                 -0.72070100    0.71945000   -1.31537200
 C                  0.76097900    0.54660400    0.23144500
 H                  0.81482600    0.60295700    1.32644300
 H                  1.31828700    1.39044100   -0.19523600
 F                  1.34241000   -0.63698500   -0.15583100
 O                 -1.31894300   -0.59905200    0.17688100
 H                 -2.23228800   -0.57114600   -0.12150000

D 8 1 4 7 S 36 10.000000

