%nprocshared=8
%mem=8GB
# freq b3lyp/6-31g(2df,p)

energy: -15.614184499692 gnorm: 0.000439253721 xtb: 6.6.1 (8d0f1dd)

0 1
 C                 -0.67398700    0.57568200   -0.25843000
 H                 -1.13324100    1.51593800    0.09112000
 H                 -0.64220100    0.60730700   -1.35895000
 C                  0.74404900    0.52389300    0.27084100
 H                  0.73285100    0.50368000    1.36804900
 H                  1.29965300    1.40901200   -0.06512500
 F                  1.38261200   -0.61092700   -0.17276100
 O                 -1.36116900   -0.56875400    0.20585900
 H                 -2.23158800   -0.58501100   -0.20158000

D 8 1 4 7 S 36 10.000000

