%nprocshared=8
%mem=8GB
# freq b3lyp/6-31g(2df,p)

energy: -15.614184499692 gnorm: 0.000439253721 xtb: 6.6.1 (8d0f1dd)

0 1
 C                 -0.72624800    0.64948600    0.09343000
 H                 -0.95748400    1.03141500    1.10091700
 H                 -1.14025600    1.36996600   -0.62885500
 C                  0.80515500    0.58853500   -0.09726500
 H                  1.30427800    1.25957300    0.61222600
 H                  1.07413100    0.90310600   -1.11373700
 F                  1.27451600   -0.68832100    0.07276700
 O                 -1.25185400   -0.65135700   -0.07230700
 H                 -2.20992600   -0.58644400   -0.02399000

D 8 1 4 7 S 36 10.000000

