%nprocshared=8
%mem=8GB
# freq b3lyp/6-31g(2df,p)

energy: -15.614184499692 gnorm: 0.000439253721 xtb: 6.6.1 (8d0f1dd)

0 1
 C                 -0.71524100    0.63792800   -0.13748300
 H                 -1.15333000    1.42526400    0.49605000
 H                 -0.88302000    0.93174200   -1.18654700
 C                  0.79273300    0.57896300    0.14369500
 H                  0.98923100    0.80270400    1.20031000
 H                  1.32241600    1.31711800   -0.47111100
 F                  1.28854200   -0.67584100   -0.10465000
 O                 -1.26483000   -0.64009100    0.10762000
 H                 -2.21849400   -0.57487700    0.00491200

D 8 1 4 7 S 36 10.000000

