%nprocshared=8
%mem=8GB
# freq b3lyp/6-31g(2df,p)

energy: -15.614184499692 gnorm: 0.000439253721 xtb: 6.6.1 (8d0f1dd)

0 1
 C                 -0.64778500    0.51026000    0.32890400
 H                 -0.50311000    0.37144000    1.41050300
 H                 -1.07985900    1.51284800    0.17169600
 C                  0.70968400    0.46507100   -0.34216200
 H                  1.23235100    1.41834800   -0.19154600
 H                  0.58508100    0.28850000   -1.41720600
 F                  1.48490300   -0.54192300    0.19162900
 O                 -1.46406100   -0.49755900   -0.23934600
 H                 -2.25750400   -0.58534900    0.29620700

D 8 1 4 7 S 36 10.000000

