%nprocshared=8
%mem=8GB
# freq b3lyp/6-31g(2df,p)

energy: -15.614184499692 gnorm: 0.000439253721 xtb: 6.6.1 (8d0f1dd)

0 1
 C                 -0.56034200    0.49699800    0.10281800
 H                 -0.60241200    1.05841400    1.04744400
 H                 -0.37227900    1.21741700   -0.70827500
 C                  0.60064300   -0.49005900    0.11789500
 H                  0.44458000   -1.22728100   -0.67885600
 H                  0.67667600   -1.01756300    1.07534900
 F                  1.77897300    0.18576400   -0.11773600
 O                 -1.73792600   -0.25831200   -0.12358000
 H                 -2.49571300    0.32199000   -0.01167200

D 8 1 4 7 S 36 10.000000

