%nprocshared=8
%mem=8GB
# freq b3lyp/6-31g(2df,p)

energy: -15.614184499692 gnorm: 0.000439253721 xtb: 6.6.1 (8d0f1dd)

0 1
 C                 -0.72659300    0.64975400   -0.09275200
 H                 -1.14036300    1.36894900    0.63088600
 H                 -0.95827300    1.03260500   -1.09970300
 C                  0.80533700    0.58873800    0.09655900
 H                  1.07475900    0.90436700    1.11249200
 H                  1.30396700    1.25862300   -0.61433000
 F                  1.27408800   -0.68843800   -0.07227200
 O                 -1.25124600   -0.65152200    0.07183300
 H                 -2.20937400   -0.58737900    0.02359400

D 8 1 4 7 S 36 10.000000

